(set-logic QF_LRA)
(declare-fun T1 () Real )
(declare-fun T2 () Real )
(declare-fun T3 () Real )
(declare-fun T4 () Real )
(declare-fun T5 () Real )
(declare-fun T6 () Real )
(declare-fun Z () Real )
(assert ( and 
(or ( <= ( + T1 21 ) T2 ) ( <= ( + T2 76 ) T1 ) )
(or ( <= ( + T1 98 )  ( + T2 76 ) ) ( <= ( + T2 77 )( + T1 21 ) ) )
(or ( <= ( + T1 160 )  ( + T2 77 ) ) ( <= ( + T2 161 )( + T1 98 ) ) )
(or ( <= ( + T1 231 )  ( + T2 161 ) ) ( <= ( + T2 163 )( + T1 160 ) ) )
(or ( <= ( + T1 21 ) T3 ) ( <= ( + T3 90 ) T1 ) )
(or ( <= ( + T1 98 )  ( + T3 90 ) ) ( <= ( + T3 100 )( + T1 21 ) ) )
(or ( <= ( + T1 160 )  ( + T3 100 ) ) ( <= ( + T3 122 )( + T1 98 ) ) )
(or ( <= ( + T1 231 )  ( + T3 122 ) ) ( <= ( + T3 153 )( + T1 160 ) ) )
(or ( <= ( + T1 21 ) T4 ) ( <= ( + T4 19 ) T1 ) )
(or ( <= ( + T1 98 )  ( + T4 19 ) ) ( <= ( + T4 98 )( + T1 21 ) ) )
(or ( <= ( + T1 160 )  ( + T4 98 ) ) ( <= ( + T4 167 )( + T1 98 ) ) )
(or ( <= ( + T1 231 )  ( + T4 167 ) ) ( <= ( + T4 174 )( + T1 160 ) ) )
(or ( <= ( + T1 21 ) T5 ) ( <= ( + T5 67 ) T1 ) )
(or ( <= ( + T1 98 )  ( + T5 67 ) ) ( <= ( + T5 80 )( + T1 21 ) ) )
(or ( <= ( + T1 160 )  ( + T5 80 ) ) ( <= ( + T5 141 )( + T1 98 ) ) )
(or ( <= ( + T1 231 )  ( + T5 141 ) ) ( <= ( + T5 157 )( + T1 160 ) ) )
(or ( <= ( + T1 21 ) T6 ) ( <= ( + T6 17 ) T1 ) )
(or ( <= ( + T1 98 )  ( + T6 17 ) ) ( <= ( + T6 63 )( + T1 21 ) ) )
(or ( <= ( + T1 160 )  ( + T6 63 ) ) ( <= ( + T6 155 )( + T1 98 ) ) )
(or ( <= ( + T1 231 )  ( + T6 155 ) ) ( <= ( + T6 217 )( + T1 160 ) ) )
(or ( <= ( + T2 76 ) T3 ) ( <= ( + T3 90 ) T2 ) )
(or ( <= ( + T2 77 )  ( + T3 90 ) ) ( <= ( + T3 100 )( + T2 76 ) ) )
(or ( <= ( + T2 161 )  ( + T3 100 ) ) ( <= ( + T3 122 )( + T2 77 ) ) )
(or ( <= ( + T2 163 )  ( + T3 122 ) ) ( <= ( + T3 153 )( + T2 161 ) ) )
(or ( <= ( + T2 76 ) T4 ) ( <= ( + T4 19 ) T2 ) )
(or ( <= ( + T2 77 )  ( + T4 19 ) ) ( <= ( + T4 98 )( + T2 76 ) ) )
(or ( <= ( + T2 161 )  ( + T4 98 ) ) ( <= ( + T4 167 )( + T2 77 ) ) )
(or ( <= ( + T2 163 )  ( + T4 167 ) ) ( <= ( + T4 174 )( + T2 161 ) ) )
(or ( <= ( + T2 76 ) T5 ) ( <= ( + T5 67 ) T2 ) )
(or ( <= ( + T2 77 )  ( + T5 67 ) ) ( <= ( + T5 80 )( + T2 76 ) ) )
(or ( <= ( + T2 161 )  ( + T5 80 ) ) ( <= ( + T5 141 )( + T2 77 ) ) )
(or ( <= ( + T2 163 )  ( + T5 141 ) ) ( <= ( + T5 157 )( + T2 161 ) ) )
(or ( <= ( + T2 76 ) T6 ) ( <= ( + T6 17 ) T2 ) )
(or ( <= ( + T2 77 )  ( + T6 17 ) ) ( <= ( + T6 63 )( + T2 76 ) ) )
(or ( <= ( + T2 161 )  ( + T6 63 ) ) ( <= ( + T6 155 )( + T2 77 ) ) )
(or ( <= ( + T2 163 )  ( + T6 155 ) ) ( <= ( + T6 217 )( + T2 161 ) ) )
(or ( <= ( + T3 90 ) T4 ) ( <= ( + T4 19 ) T3 ) )
(or ( <= ( + T3 100 )  ( + T4 19 ) ) ( <= ( + T4 98 )( + T3 90 ) ) )
(or ( <= ( + T3 122 )  ( + T4 98 ) ) ( <= ( + T4 167 )( + T3 100 ) ) )
(or ( <= ( + T3 153 )  ( + T4 167 ) ) ( <= ( + T4 174 )( + T3 122 ) ) )
(or ( <= ( + T3 90 ) T5 ) ( <= ( + T5 67 ) T3 ) )
(or ( <= ( + T3 100 )  ( + T5 67 ) ) ( <= ( + T5 80 )( + T3 90 ) ) )
(or ( <= ( + T3 122 )  ( + T5 80 ) ) ( <= ( + T5 141 )( + T3 100 ) ) )
(or ( <= ( + T3 153 )  ( + T5 141 ) ) ( <= ( + T5 157 )( + T3 122 ) ) )
(or ( <= ( + T3 90 ) T6 ) ( <= ( + T6 17 ) T3 ) )
(or ( <= ( + T3 100 )  ( + T6 17 ) ) ( <= ( + T6 63 )( + T3 90 ) ) )
(or ( <= ( + T3 122 )  ( + T6 63 ) ) ( <= ( + T6 155 )( + T3 100 ) ) )
(or ( <= ( + T3 153 )  ( + T6 155 ) ) ( <= ( + T6 217 )( + T3 122 ) ) )
(or ( <= ( + T4 19 ) T5 ) ( <= ( + T5 67 ) T4 ) )
(or ( <= ( + T4 98 )  ( + T5 67 ) ) ( <= ( + T5 80 )( + T4 19 ) ) )
(or ( <= ( + T4 167 )  ( + T5 80 ) ) ( <= ( + T5 141 )( + T4 98 ) ) )
(or ( <= ( + T4 174 )  ( + T5 141 ) ) ( <= ( + T5 157 )( + T4 167 ) ) )
(or ( <= ( + T4 19 ) T6 ) ( <= ( + T6 17 ) T4 ) )
(or ( <= ( + T4 98 )  ( + T6 17 ) ) ( <= ( + T6 63 )( + T4 19 ) ) )
(or ( <= ( + T4 167 )  ( + T6 63 ) ) ( <= ( + T6 155 )( + T4 98 ) ) )
(or ( <= ( + T4 174 )  ( + T6 155 ) ) ( <= ( + T6 217 )( + T4 167 ) ) )
(or ( <= ( + T5 67 ) T6 ) ( <= ( + T6 17 ) T5 ) )
(or ( <= ( + T5 80 )  ( + T6 17 ) ) ( <= ( + T6 63 )( + T5 67 ) ) )
(or ( <= ( + T5 141 )  ( + T6 63 ) ) ( <= ( + T6 155 )( + T5 80 ) ) )
(or ( <= ( + T5 157 )  ( + T6 155 ) ) ( <= ( + T6 217 )( + T5 141 ) ) )
( <= ( + T1 231 ) Z)
( <= ( + T2 163 ) Z)
( <= ( + T3 153 ) Z)
( <= ( + T4 174 ) Z)
( <= ( + T5 157 ) Z)
( <= ( + T6 217 ) Z)
( >= T1 0 )
( >= T2 0 )
( >= T3 0 )
( >= T4 0 )
( >= T5 0 )
( >= T6 0 )
) )
(minimize Z)
(check-sat)